\ This file has been generated by DOcplex
\ ENCODING=ISO-8859-1
\Problem name: AMC Multiple Bin Problem

Maximize
 obj: 39 x_item_0_to_bin_0 + 39 x_item_0_to_bin_1 + 43 x_item_1_to_bin_0
      + 43 x_item_1_to_bin_1 + 37 x_item_2_to_bin_0 + 37 x_item_2_to_bin_1
      + 10 x_item_3_to_bin_0 + 10 x_item_3_to_bin_1 + 44 x_item_4_to_bin_0
      + 44 x_item_4_to_bin_1
Subject To
 c1: x_item_0_to_bin_0 + x_item_0_to_bin_1 <= 1
 c2: x_item_1_to_bin_0 + x_item_1_to_bin_1 <= 1
 c3: x_item_2_to_bin_0 + x_item_2_to_bin_1 <= 1
 c4: x_item_3_to_bin_0 + x_item_3_to_bin_1 <= 1
 c5: x_item_4_to_bin_0 + x_item_4_to_bin_1 <= 1
 c6: 32 x_item_0_to_bin_0 + 42 x_item_1_to_bin_0 + 37 x_item_2_to_bin_0
     + 45 x_item_3_to_bin_0 + 33 x_item_4_to_bin_0 <= 157
 c7: 32 x_item_0_to_bin_1 + 42 x_item_1_to_bin_1 + 37 x_item_2_to_bin_1
     + 45 x_item_3_to_bin_1 + 33 x_item_4_to_bin_1 <= 157

Bounds
 0 <= x_item_0_to_bin_0 <= 1
 0 <= x_item_0_to_bin_1 <= 1
 0 <= x_item_1_to_bin_0 <= 1
 0 <= x_item_1_to_bin_1 <= 1
 0 <= x_item_2_to_bin_0 <= 1
 0 <= x_item_2_to_bin_1 <= 1
 0 <= x_item_3_to_bin_0 <= 1
 0 <= x_item_3_to_bin_1 <= 1
 0 <= x_item_4_to_bin_0 <= 1
 0 <= x_item_4_to_bin_1 <= 1

Binaries
 x_item_0_to_bin_0 x_item_0_to_bin_1 x_item_1_to_bin_0 x_item_1_to_bin_1
 x_item_2_to_bin_0 x_item_2_to_bin_1 x_item_3_to_bin_0 x_item_3_to_bin_1
 x_item_4_to_bin_0 x_item_4_to_bin_1
End
